p cnf 62 231
3 1 0
3 -2 0
-1 2 -3 0
-3 -4 -5 0
3 4 -5 0
-3 4 5 0
3 -4 5 0
6 3 0
6 5 0
-3 -5 -6 0
4 -7 -8 0
-4 7 -8 0
4 7 8 0
-4 -7 8 0
9 6 0
9 8 0
-6 -8 -9 0
-10 -1 -11 0
10 1 -11 0
-10 1 11 0
10 -1 11 0
-14 12 0
-14 -13 0
-12 13 14 0
-15 1 0
-15 -14 0
-1 14 15 0
16 -11 0
16 15 0
11 -15 -16 0
17 9 0
17 -16 0
-9 16 -17 0
-18 14 0
-18 -2 0
-14 2 18 0
19 -17 0
19 -18 0
17 18 -19 0
-3 -1 -20 0
3 1 -20 0
-3 1 20 0
3 -1 20 0
21 -20 0
21 -11 0
20 11 -21 0
13 -7 -22 0
-13 7 -22 0
13 7 22 0
-13 -7 22 0
-4 -22 -23 0
4 22 -23 0
-4 22 23 0
4 -22 23 0
24 23 0
24 12 0
-23 -12 -24 0
-25 -24 0
-25 -3 0
24 3 25 0
-26 21 0
-26 25 0
-21 -25 26 0
-27 -4 0
-27 14 0
4 -14 27 0
2 1 -28 0
-2 -1 -28 0
2 -1 28 0
-2 1 28 0
29 28 0
29 -23 0
-28 23 -29 0
-30 27 0
-30 29 0
-27 -29 30 0
-26 -30 -31 0
26 30 -31 0
-26 30 31 0
26 -30 31 0
-32 19 0
-32 -31 0
-19 31 32 0
33 -3 0
33 15 0
3 -15 -33 0
34 15 -35 0
-34 -15 -35 0
34 -15 35 0
-34 15 35 0
-10 36 -37 0
10 -36 -37 0
-10 -36 37 0
10 36 37 0
-38 35 0
-38 37 0
-35 -37 38 0
40 -2 0
40 -5 0
2 5 -40 0
4 -27 -41 0
-4 27 -41 0
4 27 41 0
-4 -27 41 0
42 40 0
42 41 0
-40 -41 -42 0
39 -42 -43 0
-39 42 -43 0
39 42 43 0
-39 -42 43 0
44 -38 0
44 43 0
38 -43 -44 0
33 -44 -45 0
-33 44 -45 0
33 44 45 0
-33 -44 45 0
32 -45 -46 0
-32 45 -46 0
32 45 46 0
-32 -45 46 0
47 -2 0
47 39 0
2 -39 -47 0
5 -4 -48 0
-5 4 -48 0
5 4 48 0
-5 -4 48 0
-49 -36 0
-49 -28 0
36 28 49 0
50 24 0
50 49 0
-24 -49 -50 0
-51 -11 0
-51 -27 0
11 27 51 0
-51 -29 -52 0
51 29 -52 0
-51 29 52 0
51 -29 52 0
53 -50 0
53 -52 0
50 52 -53 0
48 53 -54 0
-48 -53 -54 0
48 -53 54 0
-48 53 54 0
-55 47 0
-55 -54 0
-47 54 55 0
-39 5 -56 0
39 -5 -56 0
-39 -5 56 0
39 5 56 0
-7 -28 -57 0
7 28 -57 0
-7 28 57 0
7 -28 57 0
-56 57 -58 0
56 -57 -58 0
-56 -57 58 0
56 57 58 0
-59 -55 0
-59 -58 0
55 58 59 0
-10 1 -60 0
10 -1 -60 0
-10 -1 60 0
10 1 60 0
61 -59 0
61 -60 0
59 60 -61 0
62 -46 0
62 -61 0
46 61 -62 0
-1 57 27 -20 -22 44 0
-32 44 -61 -40 0
-18 -55 26 43 0
49 8 1 0
-46 20 58 -49 0
19 -28 0
42 -55 24 -13 0
-22 50 -52 0
24 38 -62 -45 -5 0
62 2 0
-15 -52 12 0
27 34 0
3 60 -28 0
62 -48 -3 -27 44 12 0
43 34 27 2 -45 0
-58 -14 53 56 0
-29 -15 0
-3 -29 -6 32 0
-56 -45 7 31 1 0
-15 -50 9 -46 -55 0
51 24 -38 22 -18 -52 0
-27 24 0
-2 -17 -39 -25 27 0
4 9 17 57 0
-34 -5 17 0
43 5 22 47 1 -33 0
-48 25 -17 0
42 -6 22 -26 0
-61 24 0
15 10 -31 0
-2 38 -24 9 -45 0
-14 29 0
-13 2 32 29 -50 0
10 30 -39 56 15 -57 0
41 51 0
26 -21 39 -22 -2 0
-50 -43 -56 -62 -14 -37 0
8 37 33 6 18 0
47 56 60 -9 0
32 -56 -39 0
29 55 60 58 0
-6 1 0
36 44 -42 1 0
-30 36 -23 -45 2 0
14 42 -17 -44 0
17 -45 0
-52 -33 8 0
59 -60 -39 0
-41 -7 -16 -22 -29 28 0
50 -9 43 42 61 0
29 -8 -28 0
-34 -20 -44 0
47 -34 -48 54 -1 0
62 0
